p cnf 15 25
1 2 3 4 0
1 2 -3 5 0
1 -2 3 6 0
1 -2 -3 7 0
-1 2 3 7 0
8 9 1 2 3 10 0
8 9 1 2 -3 10 0
8 9 1 -2 3 10 0
8 9 1 -2 -3 10 0
8 9 -1 2 3 11 0
8 -9 1 2 3 10 0
8 -9 1 2 -3 15 0
8 -9 1 -2 3 11 0
8 -9 1 -2 -3 11 0
8 -9 -1 2 3 10 0
-8 9 1 2 3 13 0
-8 9 1 2 -3 12 0
-8 9 1 -2 3 10 0
-8 9 1 -2 -3 10 0
-8 9 -1 2 3 10 0
-8 -9 1 2 3 14 0
-8 -9 1 2 -3 10 0
-8 -9 1 -2 3 10 0
-8 -9 1 -2 -3 10 0
-8 -9 -1 2 3 10 0
